33D32945 STP File, STP Format Version 1.0

SECTION Comments
Name "cube_n13_d2_s14"
Problem "Euclidean Steiner Tree Problem"
Remark "Generated with STPGenerator. 2 dimensions."
END

SECTION Graph
Nodes 13
END

SECTION Coordinates
DD 0 0.9994984996 0.2633149048
DD 1 0.2158478607 0.4602220480
DD 2 0.0529571777 0.5661688692
DD 3 0.0288339364 0.6024998616
DD 4 0.7466238550 0.6549854328
DD 5 0.0995092923 0.7305007729
DD 6 0.5819886180 0.1856662101
DD 7 0.8394953780 0.3914754770
DD 8 0.4961270823 0.6485379798
DD 9 0.1537148399 0.2108905191
DD 10 0.9520467748 0.6981957097
DD 11 0.2743996956 0.1229939042
DD 12 0.1415459719 0.6331634999
END
